NAME          DCAP_2_4_3_300_SS106
ROWS
 N  OBJ
 L  CON1
 L  CON2
 L  CON3
 L  CON4
 L  CON5
 L  CON6
 L  CON7
 L  CON8
 L  CON9
 L  CON10
 L  CON11
 L  CON12
 E  CON13
 E  CON14
 E  CON15
 E  CON16
 E  CON17
 E  CON18
 E  CON19
 E  CON20
 E  CON21
 E  CON22
 E  CON23
 E  CON24
COLUMNS
    x[1,1]    OBJ       6.180167      CON1      1.000000    
    x[1,1]    CON7      -1.000000     CON8      -1.000000   
    x[1,1]    CON9      -1.000000   
    x[1,2]    OBJ       6.563535      CON2      1.000000    
    x[1,2]    CON8      -1.000000     CON9      -1.000000   
    x[1,3]    OBJ       7.443064      CON3      1.000000    
    x[1,3]    CON9      -1.000000   
    x[2,1]    OBJ       6.732585      CON4      1.000000    
    x[2,1]    CON10     -1.000000     CON11     -1.000000   
    x[2,1]    CON12     -1.000000   
    x[2,2]    OBJ       5.039546      CON5      1.000000    
    x[2,2]    CON11     -1.000000     CON12     -1.000000   
    x[2,3]    OBJ       6.054841      CON6      1.000000    
    x[2,3]    CON12     -1.000000   
    MARKER    'MARKER'                'INTORG'
    u[1,1]    OBJ       48.076654     CON1      -1.000000   
    u[1,2]    OBJ       20.066487     CON2      -1.000000   
    u[1,3]    OBJ       32.230043     CON3      -1.000000   
    u[2,1]    OBJ       49.996186     CON4      -1.000000   
    u[2,2]    OBJ       49.466655     CON5      -1.000000   
    u[2,3]    OBJ       27.484319     CON6      -1.000000   
    y[1,1,1]  OBJ       7.700290      CON7      0.569602    
    y[1,1,1]  CON13     1.000000    
    y[1,1,2]  OBJ       8.294404      CON8      1.111151    
    y[1,1,2]  CON14     1.000000    
    y[1,1,3]  OBJ       8.397623      CON9      0.523640    
    y[1,1,3]  CON15     1.000000    
    y[1,2,1]  OBJ       8.503134      CON7      1.312118    
    y[1,2,1]  CON16     1.000000    
    y[1,2,2]  OBJ       6.250408      CON8      1.221498    
    y[1,2,2]  CON17     1.000000    
    y[1,2,3]  OBJ       8.029148      CON9      1.071147    
    y[1,2,3]  CON18     1.000000    
    y[1,3,1]  OBJ       5.290814      CON7      1.017102    
    y[1,3,1]  CON19     1.000000    
    y[1,3,2]  OBJ       8.144551      CON8      1.152419    
    y[1,3,2]  CON20     1.000000    
    y[1,3,3]  OBJ       5.932437      CON9      1.106119    
    y[1,3,3]  CON21     1.000000    
    y[1,4,1]  OBJ       8.673844      CON7      1.027826    
    y[1,4,1]  CON22     1.000000    
    y[1,4,2]  OBJ       5.166463      CON8      1.187035    
    y[1,4,2]  CON23     1.000000    
    y[1,4,3]  OBJ       5.771512      CON9      0.615886    
    y[1,4,3]  CON24     1.000000    
    y[2,1,1]  OBJ       6.488485      CON10     0.569602    
    y[2,1,1]  CON13     1.000000    
    y[2,1,2]  OBJ       7.011271      CON11     1.111151    
    y[2,1,2]  CON14     1.000000    
    y[2,1,3]  OBJ       7.439079      CON12     0.523640    
    y[2,1,3]  CON15     1.000000    
    y[2,2,1]  OBJ       8.393848      CON10     1.312118    
    y[2,2,1]  CON16     1.000000    
    y[2,2,2]  OBJ       6.058205      CON11     1.221498    
    y[2,2,2]  CON17     1.000000    
    y[2,2,3]  OBJ       7.374824      CON12     1.071147    
    y[2,2,3]  CON18     1.000000    
    y[2,3,1]  OBJ       6.788893      CON10     1.017102    
    y[2,3,1]  CON19     1.000000    
    y[2,3,2]  OBJ       6.431022      CON11     1.152419    
    y[2,3,2]  CON20     1.000000    
    y[2,3,3]  OBJ       7.257801      CON12     1.106119    
    y[2,3,3]  CON21     1.000000    
    y[2,4,1]  OBJ       9.508251      CON10     1.027826    
    y[2,4,1]  CON22     1.000000    
    y[2,4,2]  OBJ       6.393695      CON11     1.187035    
    y[2,4,2]  CON23     1.000000    
    y[2,4,3]  OBJ       8.139244      CON12     0.615886    
    y[2,4,3]  CON24     1.000000    
    z[1,1]    OBJ       901.651043    CON13     1.000000    
    z[1,2]    OBJ       536.484740    CON14     1.000000    
    z[1,3]    OBJ       791.273630    CON15     1.000000    
    z[2,1]    OBJ       853.357425    CON16     1.000000    
    z[2,2]    OBJ       922.100701    CON17     1.000000    
    z[2,3]    OBJ       577.073227    CON18     1.000000    
    z[3,1]    OBJ       869.467158    CON19     1.000000    
    z[3,2]    OBJ       877.188324    CON20     1.000000    
    z[3,3]    OBJ       723.787266    CON21     1.000000    
    z[4,1]    OBJ       550.311796    CON22     1.000000    
    z[4,2]    OBJ       980.959104    CON23     1.000000    
    z[4,3]    OBJ       574.617520    CON24     1.000000    
    MARKER    'MARKER'                 'INTEND'
RHS
    RHS       CON1      -0.000000     CON2      -0.000000   
    RHS       CON3      -0.000000     CON4      -0.000000   
    RHS       CON5      -0.000000     CON6      -0.000000   
    RHS       CON7      -0.000000     CON8      -0.000000   
    RHS       CON9      -0.000000     CON10     -0.000000   
    RHS       CON11     -0.000000     CON12     -0.000000   
    RHS       CON13     1.000000      CON14     1.000000    
    RHS       CON15     1.000000      CON16     1.000000    
    RHS       CON17     1.000000      CON18     1.000000    
    RHS       CON19     1.000000      CON20     1.000000    
    RHS       CON21     1.000000      CON22     1.000000    
    RHS       CON23     1.000000      CON24     1.000000    
BOUNDS
 BV BOUND     u[1,1]  
 BV BOUND     u[1,2]  
 BV BOUND     u[1,3]  
 BV BOUND     u[2,1]  
 BV BOUND     u[2,2]  
 BV BOUND     u[2,3]  
 BV BOUND     y[1,1,1]
 BV BOUND     y[1,1,2]
 BV BOUND     y[1,1,3]
 BV BOUND     y[1,2,1]
 BV BOUND     y[1,2,2]
 BV BOUND     y[1,2,3]
 BV BOUND     y[1,3,1]
 BV BOUND     y[1,3,2]
 BV BOUND     y[1,3,3]
 BV BOUND     y[1,4,1]
 BV BOUND     y[1,4,2]
 BV BOUND     y[1,4,3]
 BV BOUND     y[2,1,1]
 BV BOUND     y[2,1,2]
 BV BOUND     y[2,1,3]
 BV BOUND     y[2,2,1]
 BV BOUND     y[2,2,2]
 BV BOUND     y[2,2,3]
 BV BOUND     y[2,3,1]
 BV BOUND     y[2,3,2]
 BV BOUND     y[2,3,3]
 BV BOUND     y[2,4,1]
 BV BOUND     y[2,4,2]
 BV BOUND     y[2,4,3]
 BV BOUND     z[1,1]  
 BV BOUND     z[1,2]  
 BV BOUND     z[1,3]  
 BV BOUND     z[2,1]  
 BV BOUND     z[2,2]  
 BV BOUND     z[2,3]  
 BV BOUND     z[3,1]  
 BV BOUND     z[3,2]  
 BV BOUND     z[3,3]  
 BV BOUND     z[4,1]  
 BV BOUND     z[4,2]  
 BV BOUND     z[4,3]  
ENDATA
